Version identifier: 20.1.0.0 | 2020-11-10 | 9bedb6d68
Tried aggregator 2 times.
MIP Presolve eliminated 656 rows and 364 columns.
MIP Presolve modified 1339 coefficients.
Aggregator did 90 substitutions.
Reduced MIP has 535 rows, 453 columns, and 1698 nonzeros.
Reduced MIP has 125 binaries, 328 generals, 0 SOSs, and 0 indicators.
Presolve time = 0.01 sec. (2.76 ticks)
Found incumbent of value 39.000000 after 0.01 sec. (4.79 ticks)
Probing fixed 15 vars, tightened 144 bounds.
Probing time = 0.00 sec. (0.42 ticks)
Tried aggregator 2 times.
Detecting symmetries...
MIP Presolve eliminated 225 rows and 29 columns.
MIP Presolve modified 57 coefficients.
Aggregator did 12 substitutions.
Reduced MIP has 298 rows, 412 columns, and 972 nonzeros.
Reduced MIP has 152 binaries, 260 generals, 0 SOSs, and 0 indicators.
Presolve time = 0.00 sec. (1.42 ticks)
Probing time = 0.00 sec. (0.09 ticks)
Clique table members: 1.
MIP emphasis: balance optimality and feasibility.
MIP search method: dynamic search.
Parallel mode: deterministic, using up to 24 threads.
Root relaxation solution time = 0.00 sec. (0.85 ticks)

        Nodes                                         Cuts/
   Node  Left     Objective  IInf  Best Integer    Best Bound    ItCnt     Gap

*     0+    0                           39.0000        0.0000           100.00%
      0     0        0.0000    36       39.0000        0.0000      120  100.00%
      0     0        3.3333   115       39.0000      Cuts: 92      251   91.45%
*     0+    0                           18.0000        3.3333            81.48%
      0     0        4.2292   174       18.0000      Cuts: 73      345   76.50%
      0     0        4.4074   150       18.0000      Cuts: 55      391   75.51%
      0     0        4.4706   159       18.0000      Cuts: 34      416   75.16%
      0     0        4.9500   127       18.0000      Cuts: 41      458   72.50%
      0     0        5.1304   141       18.0000      Cuts: 45      519   71.50%
      0     0        5.1429   173       18.0000      Cuts: 60      576   71.43%
      0     0        5.1645   197       18.0000      Cuts: 54      636   71.31%
      0     0        5.2308   195       18.0000      Cuts: 61      684   70.94%
*     0+    0                           16.0000        5.2308            67.31%
      0     0        5.2500   192       16.0000      Cuts: 40      731   67.19%
      0     0        5.3750   161       16.0000      Cuts: 35      772   66.41%
      0     0        5.7500   141       16.0000      Cuts: 48      810   64.06%
      0     0        6.2105   152       16.0000      Cuts: 78      851   61.18%
      0     0        6.2105   161       16.0000      Cuts: 52      881   61.18%
      0     0        6.3125   130       16.0000      Cuts: 23      910   60.55%
      0     0        6.3158   156       16.0000      Cuts: 64      963   60.53%
      0     0        6.5000   143       16.0000      Cuts: 59     1003   59.37%
      0     0        6.5000   140       16.0000      Cuts: 55     1057   59.37%
*     0+    0                           14.0000        6.5000            53.57%
      0     0        cutoff             14.0000       14.0000     1057    0.00%
Elapsed time = 0.20 sec. (75.88 ticks, tree = 0.01 MB, solutions = 4)

Implied bound cuts applied:  2
Mixed integer rounding cuts applied:  6
Zero-half cuts applied:  37
Gomory fractional cuts applied:  3

Root node processing (before b&c):
  Real time             =    0.20 sec. (75.93 ticks)
Parallel b&c, 24 threads:
  Real time             =    0.00 sec. (0.00 ticks)
  Sync time (average)   =    0.00 sec.
  Wait time (average)   =    0.00 sec.
                          ------------
Total (root+branch&cut) =    0.20 sec. (75.93 ticks)

Solution status = Optimal
Solution LB = 14
Solution UB = 14
Runtime = 0.20221 seconds
	Command being timed: "/home/min/git_repos/CS598MEBProject/CNT-ILP/build/cnt -s 2 ./output/k6_n15/simC_c1_k6_n15_u3_s3_del04.input-right.cnp"
	User time (seconds): 2.36
	System time (seconds): 0.04
	Percent of CPU this job got: 1123%
	Elapsed (wall clock) time (h:mm:ss or m:ss): 0:00.21
	Average shared text size (kbytes): 0
	Average unshared data size (kbytes): 0
	Average stack size (kbytes): 0
	Average total size (kbytes): 0
	Maximum resident set size (kbytes): 48020
	Average resident set size (kbytes): 0
	Major (requiring I/O) page faults: 0
	Minor (reclaiming a frame) page faults: 9187
	Voluntary context switches: 1372
	Involuntary context switches: 325
	Swaps: 0
	File system inputs: 0
	File system outputs: 16
	Socket messages sent: 0
	Socket messages received: 0
	Signals delivered: 0
	Page size (bytes): 4096
	Exit status: 0
